# Solution for model VRP
# Objective value = 1.2675781282308407e+01
x0_0 0
x0_1 0
x0_2 0
x0_3 0
x0_4 0
x0_5 0
x0_6 0
x1_0 0
x1_1 0
x1_2 0
x1_3 1
x1_4 1
x1_5 0
x1_6 0
x2_0 0
x2_1 0
x2_2 0
x2_3 0
x2_4 0
x2_5 1
x2_6 0
x3_0 0
x3_1 0
x3_2 0
x3_3 0
x3_4 0
x3_5 0
x3_6 0
x4_0 0
x4_1 0
x4_2 1
x4_3 0
x4_4 0
x4_5 0
x4_6 0
x5_0 0
x5_1 0
x5_2 0
x5_3 0
x5_4 0
x5_5 0
x5_6 1
x6_0 0
x6_1 0
x6_2 0
x6_3 0
x6_4 0
x6_5 0
x6_6 0
y_0 0
y_1 1
f0_0 1
f0_1 0
f0_2 0
f0_3 0
f0_4 0
f0_5 0
f0_6 0
f1_0 0
f1_1 1
f1_2 1
f1_3 1
f1_4 1
f1_5 1
f1_6 1
z_2 0
z_3 1
z_4 0
z_5 0
z_6 1
a2_0 0
a3_0 0
a4_0 0
a5_0 0
a6_0 0
a2_1 0
a3_1 1
a4_1 0
a5_1 0
a6_1 1
t0_0 0
t0_1 0
t0_2 0
t0_3 0
t0_4 0
t0_5 0
t0_6 0
t1_0 0
t1_1 0
t1_2 0
t1_3 4.1480647466933895e+01
t1_4 9.5229175592197123e+01
t1_5 0
t1_6 0
t2_0 0
t2_1 0
t2_2 0
t2_3 0
t2_4 0
t2_5 4.2674890152638021e+01
t2_6 0
t3_0 0
t3_1 0
t3_2 0
t3_3 0
t3_4 0
t3_5 0
t3_6 0
t4_0 0
t4_1 0
t4_2 7.9451585898537218e+01
t4_3 0
t4_4 0
t4_5 0
t4_6 0
t5_0 0
t5_1 0
t5_2 0
t5_3 7.1054273576010019e-15
t5_4 0
t5_5 0
t5_6 4.0774494608828675e+01
t6_0 0
t6_1 0
t6_2 0
t6_3 0
t6_4 0
t6_5 0
t6_6 0
